TCS_Benchmarks/redos_fix/snort1_output_distinct_1643_1642_44_0.smt2
(set-logic QF_S)
(declare-const x String)
(assert (str.in.re x (re.inter  (re.++ (re.*  (re.union (re.union (re.range "\u{00}" "\u{09}") (re.range "\u{0b}" "\u{0c}") (re.range "\u{0e}" "\u{84}") (re.range "\u{86}" "\u{ff}")) (re.union  (str.to_re "\u{0A}")  (str.to_re "\u{0D}"))) )  (re.++ (re.comp  (str.to.re "\u{22}")) (re.++ (re.comp  (str.to.re "\u{22}")) (re.++ (re.comp  (str.to.re "\u{22}")) (re.++ (re.comp  (str.to.re "\u{22}")) (re.++ (re.comp  (str.to.re "\u{22}")) (re.++ (re.comp  (str.to.re "\u{22}")) (re.++ (re.comp  (str.to.re "\u{22}")) (re.++ (re.comp  (str.to.re "\u{22}")) (re.++ (re.comp  (str.to.re "\u{22}")) (re.++ (re.comp  (str.to.re "\u{22}")) (re.++ (re.comp  (str.to.re "\u{22}")) (re.++ (re.comp  (str.to.re "\u{22}")) (re.++ (re.comp  (str.to.re "\u{22}")) (re.++ (re.comp  (str.to.re "\u{22}")) (re.++ (re.comp  (str.to.re "\u{22}")) (re.++ (re.comp  (str.to.re "\u{22}")) (re.++ (re.comp  (str.to.re "\u{22}")) (re.++ (re.comp  (str.to.re "\u{22}")) (re.++ (re.comp  (str.to.re "\u{22}")) (re.++ (re.comp  (str.to.re "\u{22}")) (re.++ (re.comp  (str.to.re "\u{22}")) (re.++ (re.comp  (str.to.re "\u{22}")) (re.++ (re.comp  (str.to.re "\u{22}")) (re.++ (re.comp  (str.to.re "\u{22}")) (re.++ (re.comp  (str.to.re "\u{22}")) (re.++ (re.comp  (str.to.re "\u{22}")) (re.++ (re.comp  (str.to.re "\u{22}")) (re.++ (re.comp  (str.to.re "\u{22}")) (re.++ (re.comp  (str.to.re "\u{22}")) (re.++ (re.comp  (str.to.re "\u{22}")) (re.++ (re.comp  (str.to.re "\u{22}")) (re.++ (re.comp  (str.to.re "\u{22}")) (re.++ (re.comp  (str.to.re "\u{22}")) (re.++ (re.comp  (str.to.re "\u{22}")) (re.++ (re.comp  (str.to.re "\u{22}")) (re.++ (re.comp  (str.to.re "\u{22}")) (re.++ (re.comp  (str.to.re "\u{22}")) (re.++ (re.comp  (str.to.re "\u{22}")) (re.++ (re.comp  (str.to.re "\u{22}")) (re.++ (re.comp  (str.to.re "\u{22}")) (re.++ (re.comp  (str.to.re "\u{22}")) (re.++ (re.comp  (str.to.re "\u{22}")) (re.++ (re.comp  (str.to.re "\u{22}")) (re.++ (re.comp  (str.to.re "\u{22}")) (re.++ (re.comp  (str.to.re "\u{22}")) (re.++ (re.comp  (str.to.re "\u{22}")) (re.++ (re.comp  (str.to.re "\u{22}")) (re.++ (re.comp  (str.to.re "\u{22}")) (re.++ (re.comp  (str.to.re "\u{22}")) (re.++ (re.comp  (str.to.re "\u{22}")) (re.++ (re.comp  (str.to.re "\u{22}")) (re.++ (re.comp  (str.to.re "\u{22}")) (re.++ (re.comp  (str.to.re "\u{22}")) (re.++ (re.comp  (str.to.re "\u{22}")) (re.++ (re.comp  (str.to.re "\u{22}")) (re.++ (re.comp  (str.to.re "\u{22}")) (re.++ (re.comp  (str.to.re "\u{22}")) (re.++ (re.comp  (str.to.re "\u{22}")) (re.++ (re.comp  (str.to.re "\u{22}")) (re.++ (re.comp  (str.to.re "\u{22}")) (re.++ (re.comp  (str.to.re "\u{22}")) (re.++ (re.comp  (str.to.re "\u{22}")) (re.++ (re.comp  (str.to.re "\u{22}")) (re.++ (re.comp  (str.to.re "\u{22}")) (re.++ (re.comp  (str.to.re "\u{22}")) (re.++ (re.comp  (str.to.re "\u{22}")) (re.++ (re.comp  (str.to.re "\u{22}")) (re.++ (re.comp  (str.to.re "\u{22}")) (re.++ (re.comp  (str.to.re "\u{22}")) (re.++ (re.comp  (str.to.re "\u{22}")) (re.++ (re.comp  (str.to.re "\u{22}")) (re.++ (re.comp  (str.to.re "\u{22}")) (re.++ (re.comp  (str.to.re "\u{22}")) (re.++ (re.comp  (str.to.re "\u{22}")) (re.++ (re.comp  (str.to.re "\u{22}")) (re.++ (re.comp  (str.to.re "\u{22}")) (re.++ (re.comp  (str.to.re "\u{22}")) (re.++ (re.comp  (str.to.re "\u{22}")) (re.++ (re.comp  (str.to.re "\u{22}")) (re.++ (re.comp  (str.to.re "\u{22}")) (re.++ (re.comp  (str.to.re "\u{22}")) (re.++ (re.comp  (str.to.re "\u{22}")) (re.++ (re.comp  (str.to.re "\u{22}")) (re.++ (re.comp  (str.to.re "\u{22}")) (re.++ (re.comp  (str.to.re "\u{22}")) (re.++ (re.comp  (str.to.re "\u{22}")) (re.++ (re.comp  (str.to.re "\u{22}")) (re.++ (re.comp  (str.to.re "\u{22}")) (re.++ (re.comp  (str.to.re "\u{22}")) (re.++ (re.comp  (str.to.re "\u{22}")) (re.++ (re.comp  (str.to.re "\u{22}")) (re.++ (re.comp  (str.to.re "\u{22}")) (re.++ (re.comp  (str.to.re "\u{22}")) (re.++ (re.comp  (str.to.re "\u{22}")) (re.++ (re.comp  (str.to.re "\u{22}")) (re.++ (re.comp  (str.to.re "\u{22}")) (re.++ (re.comp  (str.to.re "\u{22}")) (re.++ (re.comp  (str.to.re "\u{22}")) (re.++ (re.comp  (str.to.re "\u{22}")) (re.++ (re.comp  (str.to.re "\u{22}")) (re.++ (re.comp  (str.to.re "\u{22}")) (re.++ (re.comp  (str.to.re "\u{22}")) (re.++ (re.comp  (str.to.re "\u{22}")) (re.++ (re.comp  (str.to.re "\u{22}")) (re.++ (re.comp  (str.to.re "\u{22}")) (re.++ (re.comp  (str.to.re "\u{22}")) (re.++ (re.comp  (str.to.re "\u{22}")) (re.++ (re.comp  (str.to.re "\u{22}")) (re.++ (re.comp  (str.to.re "\u{22}")) (re.++ (re.comp  (str.to.re "\u{22}")) (re.++ (re.comp  (str.to.re "\u{22}")) (re.++ (re.comp  (str.to.re "\u{22}")) (re.++ (re.comp  (str.to.re "\u{22}")) (re.++ (re.comp  (str.to.re "\u{22}")) (re.++ (re.comp  (str.to.re "\u{22}")) (re.++ (re.comp  (str.to.re "\u{22}")) (re.++ (re.comp  (str.to.re "\u{22}")) (re.++ (re.comp  (str.to.re "\u{22}")) (re.++ (re.comp  (str.to.re "\u{22}")) (re.++ (re.comp  (str.to.re "\u{22}")) (re.++ (re.comp  (str.to.re "\u{22}")) (re.++ (re.comp  (str.to.re "\u{22}")) (re.++ (re.comp  (str.to.re "\u{22}")) (re.++ (re.comp  (str.to.re "\u{22}")) (re.++ (re.comp  (str.to.re "\u{22}")) (re.++ (re.comp  (str.to.re "\u{22}")) (re.++ (re.comp  (str.to.re "\u{22}")) (re.comp  (str.to.re "\u{22}"))))))))))))))))))))))))))))))))))))))))))))))))))))))))))))))))))))))))))))))))))))))))))))))))))))))))))))))))))))))))))))))))))  (re.++ (re.*  (re.union (re.union (re.range "\u{00}" "\u{09}") (re.range "\u{0b}" "\u{0c}") (re.range "\u{0e}" "\u{84}") (re.range "\u{86}" "\u{ff}")) (re.union  (str.to_re "\u{0A}")  (str.to_re "\u{0D}"))) ) (re.++  (re.++ (re.+  (re.union (re.range "\u{41}" "\u{5a}") (re.union (re.range "\u{61}" "\u{7a}") (re.union (re.range "\u{30}" "\u{39}")  (str.to.re "\u{5f}")))) ) (re.++  (str.to.re "\u{2e}") (re.++  (re.union  (str.to.re "\u{64}")  (str.to.re "\u{44}")) (re.++  (re.union  (str.to.re "\u{61}")  (str.to.re "\u{41}")) (re.++  (re.union  (str.to.re "\u{74}")  (str.to.re "\u{54}")) (re.++  (re.union  (str.to.re "\u{61}")  (str.to.re "\u{41}")) (re.++  (re.union  (str.to.re "\u{75}")  (str.to.re "\u{55}")) (re.++  (re.union  (str.to.re "\u{72}")  (str.to.re "\u{52}")) (re.++  (re.union  (str.to.re "\u{6c}")  (str.to.re "\u{4c}")) (re.++ (re.* (re.union (re.range "\u{09}" "\u{0d}") (re.range "\u{20}" "\u{20}") (re.range "\u{85}" "\u{85}") (re.range "\u{a0}" "\u{a0}")) ) (re.++  (str.to.re "\u{3d}") (re.++ (re.* (re.union (re.range "\u{09}" "\u{0d}") (re.range "\u{20}" "\u{20}") (re.range "\u{85}" "\u{85}") (re.range "\u{a0}" "\u{a0}")) )  (str.to.re "\u{22}")))))))))))))  (re.++ (re.comp  (str.to.re "\u{22}")) (re.++ (re.comp  (str.to.re "\u{22}")) (re.++ (re.comp  (str.to.re "\u{22}")) (re.++ (re.comp  (str.to.re "\u{22}")) (re.++ (re.comp  (str.to.re "\u{22}")) (re.++ (re.comp  (str.to.re "\u{22}")) (re.++ (re.comp  (str.to.re "\u{22}")) (re.++ (re.comp  (str.to.re "\u{22}")) (re.++ (re.comp  (str.to.re "\u{22}")) (re.++ (re.comp  (str.to.re "\u{22}")) (re.++ (re.comp  (str.to.re "\u{22}")) (re.++ (re.comp  (str.to.re "\u{22}")) (re.++ (re.comp  (str.to.re "\u{22}")) (re.++ (re.comp  (str.to.re "\u{22}")) (re.++ (re.comp  (str.to.re "\u{22}")) (re.++ (re.comp  (str.to.re "\u{22}")) (re.++ (re.comp  (str.to.re "\u{22}")) (re.++ (re.comp  (str.to.re "\u{22}")) (re.++ (re.comp  (str.to.re "\u{22}")) (re.++ (re.comp  (str.to.re "\u{22}")) (re.++ (re.comp  (str.to.re "\u{22}")) (re.++ (re.comp  (str.to.re "\u{22}")) (re.++ (re.comp  (str.to.re "\u{22}")) (re.++ (re.comp  (str.to.re "\u{22}")) (re.++ (re.comp  (str.to.re "\u{22}")) (re.++ (re.comp  (str.to.re "\u{22}")) (re.++ (re.comp  (str.to.re "\u{22}")) (re.++ (re.comp  (str.to.re "\u{22}")) (re.++ (re.comp  (str.to.re "\u{22}")) (re.++ (re.comp  (str.to.re "\u{22}")) (re.++ (re.comp  (str.to.re "\u{22}")) (re.++ (re.comp  (str.to.re "\u{22}")) (re.++ (re.comp  (str.to.re "\u{22}")) (re.++ (re.comp  (str.to.re "\u{22}")) (re.++ (re.comp  (str.to.re "\u{22}")) (re.++ (re.comp  (str.to.re "\u{22}")) (re.++ (re.comp  (str.to.re "\u{22}")) (re.++ (re.comp  (str.to.re "\u{22}")) (re.++ (re.comp  (str.to.re "\u{22}")) (re.++ (re.comp  (str.to.re "\u{22}")) (re.++ (re.comp  (str.to.re "\u{22}")) (re.++ (re.comp  (str.to.re "\u{22}")) (re.++ (re.comp  (str.to.re "\u{22}")) (re.++ (re.comp  (str.to.re "\u{22}")) (re.++ (re.comp  (str.to.re "\u{22}")) (re.++ (re.comp  (str.to.re "\u{22}")) (re.++ (re.comp  (str.to.re "\u{22}")) (re.++ (re.comp  (str.to.re "\u{22}")) (re.++ (re.comp  (str.to.re "\u{22}")) (re.++ (re.comp  (str.to.re "\u{22}")) (re.++ (re.comp  (str.to.re "\u{22}")) (re.++ (re.comp  (str.to.re "\u{22}")) (re.++ (re.comp  (str.to.re "\u{22}")) (re.++ (re.comp  (str.to.re "\u{22}")) (re.++ (re.comp  (str.to.re "\u{22}")) (re.++ (re.comp  (str.to.re "\u{22}")) (re.++ (re.comp  (str.to.re "\u{22}")) (re.++ (re.comp  (str.to.re "\u{22}")) (re.++ (re.comp  (str.to.re "\u{22}")) (re.++ (re.comp  (str.to.re "\u{22}")) (re.++ (re.comp  (str.to.re "\u{22}")) (re.++ (re.comp  (str.to.re "\u{22}")) (re.++ (re.comp  (str.to.re "\u{22}")) (re.++ (re.comp  (str.to.re "\u{22}")) (re.++ (re.comp  (str.to.re "\u{22}")) (re.++ (re.comp  (str.to.re "\u{22}")) (re.++ (re.comp  (str.to.re "\u{22}")) (re.++ (re.comp  (str.to.re "\u{22}")) (re.++ (re.comp  (str.to.re "\u{22}")) (re.++ (re.comp  (str.to.re "\u{22}")) (re.++ (re.comp  (str.to.re "\u{22}")) (re.++ (re.comp  (str.to.re "\u{22}")) (re.++ (re.comp  (str.to.re "\u{22}")) (re.++ (re.comp  (str.to.re "\u{22}")) (re.++ (re.comp  (str.to.re "\u{22}")) (re.++ (re.comp  (str.to.re "\u{22}")) (re.++ (re.comp  (str.to.re "\u{22}")) (re.++ (re.comp  (str.to.re "\u{22}")) (re.++ (re.comp  (str.to.re "\u{22}")) (re.++ (re.comp  (str.to.re "\u{22}")) (re.++ (re.comp  (str.to.re "\u{22}")) (re.++ (re.comp  (str.to.re "\u{22}")) (re.++ (re.comp  (str.to.re "\u{22}")) (re.++ (re.comp  (str.to.re "\u{22}")) (re.++ (re.comp  (str.to.re "\u{22}")) (re.++ (re.comp  (str.to.re "\u{22}")) (re.++ (re.comp  (str.to.re "\u{22}")) (re.++ (re.comp  (str.to.re "\u{22}")) (re.++ (re.comp  (str.to.re "\u{22}")) (re.++ (re.comp  (str.to.re "\u{22}")) (re.++ (re.comp  (str.to.re "\u{22}")) (re.++ (re.comp  (str.to.re "\u{22}")) (re.++ (re.comp  (str.to.re "\u{22}")) (re.++ (re.comp  (str.to.re "\u{22}")) (re.++ (re.comp  (str.to.re "\u{22}")) (re.++ (re.comp  (str.to.re "\u{22}")) (re.++ (re.comp  (str.to.re "\u{22}")) (re.++ (re.comp  (str.to.re "\u{22}")) (re.++ (re.comp  (str.to.re "\u{22}")) (re.++ (re.comp  (str.to.re "\u{22}")) (re.++ (re.comp  (str.to.re "\u{22}")) (re.++ (re.comp  (str.to.re "\u{22}")) (re.++ (re.comp  (str.to.re "\u{22}")) (re.++ (re.comp  (str.to.re "\u{22}")) (re.++ (re.comp  (str.to.re "\u{22}")) (re.++ (re.comp  (str.to.re "\u{22}")) (re.++ (re.comp  (str.to.re "\u{22}")) (re.++ (re.comp  (str.to.re "\u{22}")) (re.++ (re.comp  (str.to.re "\u{22}")) (re.++ (re.comp  (str.to.re "\u{22}")) (re.++ (re.comp  (str.to.re "\u{22}")) (re.++ (re.comp  (str.to.re "\u{22}")) (re.++ (re.comp  (str.to.re "\u{22}")) (re.++ (re.comp  (str.to.re "\u{22}")) (re.++ (re.comp  (str.to.re "\u{22}")) (re.++ (re.comp  (str.to.re "\u{22}")) (re.++ (re.comp  (str.to.re "\u{22}")) (re.++ (re.comp  (str.to.re "\u{22}")) (re.++ (re.comp  (str.to.re "\u{22}")) (re.++ (re.comp  (str.to.re "\u{22}")) (re.++ (re.comp  (str.to.re "\u{22}")) (re.++ (re.comp  (str.to.re "\u{22}")) (re.++ (re.comp  (str.to.re "\u{22}")) (re.++ (re.comp  (str.to.re "\u{22}")) (re.++ (re.comp  (str.to.re "\u{22}")) (re.++ (re.comp  (str.to.re "\u{22}")) (re.++ (re.comp  (str.to.re "\u{22}")) (re.comp  (str.to.re "\u{22}"))))))))))))))))))))))))))))))))))))))))))))))))))))))))))))))))))))))))))))))))))))))))))))))))))))))))))))))))))))))))))))))))))) )))
(check-sat)
(get-model)