TCS_Benchmarks/redos_fix/snort1_output_distinct_1643_1642_44_0.txt
((.|\n|\r)*)([^"]{128})
((.|\n|\r)*)(([A-Za-z\d_]+)\.[dD][aA][tT][aA][uU][rR][lL]\s*=\s*")([^"]{128})